p cnf 7230 14
3734 -4347 0
-3734 -4345 4346 0
-2034 -3736 -3738 4341 0
-4343 4345 0
2034 -4341 0
-2036 -3740 4344 0
2036 -4345 0
-4346 4347 0
4345 -4347 0
4342 -4344 0
-4342 4343 0
3740 -4345 0
-4340 4341 0
4340 -4341 0
